Cost: 1294
0-1-2-13-35-4-6-7-32-8-36-9-11-38-19-18-39-10-51-12-15-14-55-0
0-34-3-48-31-46-29-26-25-24-20-40-41-21-50-54-27-43-28-0
Cost: 1294
0-2-13-35-4-6-7-32-8-36-9-11-38-19-18-39-10-51-12-15-14-55-0
0-34-1-3-48-31-29-26-25-24-20-40-41-21-54-27-49-43-28-45-0
Cost: 1294
0-1-2-13-35-4-6-7-32-8-36-9-11-38-19-18-39-10-51-12-15-14-55-0
0-34-3-48-31-46-29-26-25-24-20-40-41-21-50-54-27-43-28-0
Cost: 1294
0-1-2-13-35-4-6-7-32-8-36-9-11-38-19-18-39-10-51-12-15-14-55-0
0-34-3-48-31-46-29-26-25-24-20-40-41-21-54-27-49-43-28-0
Cost: 1295
0-34-3-48-31-46-29-26-25-24-20-40-41-21-50-54-27-43-28-0
0-1-2-13-35-4-6-7-32-8-36-9-11-38-19-39-10-14-12-15-17-52-55-0
Cost: 1294
0-34-1-3-48-31-46-29-26-25-20-40-41-21-50-23-54-27-43-28-0
0-2-13-35-4-6-7-32-8-36-9-11-19-18-39-38-10-51-12-15-14-55-0
Cost: 1294
0-1-2-13-35-4-6-7-32-8-36-9-11-38-19-18-39-10-51-12-15-14-55-0
0-34-3-48-31-29-26-25-24-20-40-41-21-50-54-27-43-28-45-0
Cost: 1294
0-34-3-48-31-29-26-25-24-20-40-41-21-50-54-27-43-28-45-0
0-1-2-13-35-6-4-7-32-8-36-9-11-38-19-18-39-10-51-12-15-14-55-0
Cost: 1294
0-34-3-48-31-29-26-25-24-20-40-41-21-50-54-27-43-28-45-0
0-1-2-13-35-6-4-7-32-8-36-9-11-38-19-18-39-10-51-12-15-14-55-0
Cost: 1294
0-34-3-48-31-29-26-25-24-20-40-41-21-50-54-27-43-28-45-0
0-1-2-13-35-6-4-7-32-8-36-9-11-38-19-18-39-10-51-12-15-14-55-0
Cost: 1294
0-34-3-48-31-29-26-25-24-20-40-41-21-50-54-27-43-28-45-0
0-1-2-13-35-6-4-7-32-8-36-9-11-38-19-18-39-10-51-12-15-14-55-0
Cost: 1294
0-34-3-48-31-46-29-26-25-20-40-41-21-23-54-27-49-43-28-0
0-1-2-13-35-6-4-7-32-8-36-9-11-38-19-18-39-10-51-12-15-14-55-0
Cost: 1294
0-1-2-13-35-4-6-7-32-8-36-9-11-38-19-18-39-10-51-12-15-14-55-0
0-34-3-48-31-29-26-25-24-20-40-41-21-50-54-27-43-28-45-0
Cost: 1294
0-1-2-13-35-6-4-7-32-8-36-9-11-38-19-18-39-10-51-12-15-14-55-0
0-34-3-48-31-46-29-26-25-24-20-40-41-21-54-27-49-43-28-0
Cost: 1294
0-2-13-35-6-4-7-32-8-36-9-11-38-19-18-39-10-51-12-15-14-55-0
0-34-1-3-48-31-29-26-25-20-40-41-21-50-23-54-27-43-28-45-0
Cost: 1294
0-34-3-48-31-46-29-26-25-20-40-41-21-23-54-27-49-43-28-0
0-1-2-13-35-6-4-7-32-8-36-9-11-38-19-18-39-10-51-12-15-14-55-0
Cost: 1294
0-34-3-48-31-46-29-26-25-20-40-41-21-23-54-27-49-43-28-0
0-1-2-13-35-6-4-7-32-8-36-9-11-38-19-18-39-10-51-12-15-14-55-0
Cost: 1294
0-1-2-13-35-6-4-7-32-8-36-9-11-38-19-18-39-10-51-12-15-14-55-0
0-34-3-48-31-46-29-26-25-24-20-40-41-21-50-54-27-44-28-0
Cost: 1294
0-34-3-48-31-46-29-26-25-20-40-41-21-23-54-27-49-43-28-0
0-1-2-13-35-6-4-7-32-8-36-9-11-38-19-18-39-10-51-12-15-14-55-0
Cost: 1294
0-1-2-13-35-4-6-7-32-8-36-9-11-38-19-18-39-10-51-12-15-14-55-0
0-34-3-48-31-46-29-26-25-24-20-40-41-21-50-54-27-43-28-0
Cost: 1294
0-34-3-48-31-46-29-26-25-20-40-41-21-50-23-54-27-43-28-0
0-1-2-13-35-6-4-7-32-8-36-9-11-38-19-18-39-10-51-12-15-14-55-0
Cost: 1294
0-1-2-13-35-4-6-7-32-8-36-9-11-38-19-18-39-10-51-12-15-14-55-0
0-34-3-48-31-46-29-26-25-24-20-40-41-21-50-54-27-43-28-0
Cost: 1294
0-1-2-13-35-4-6-7-32-8-36-9-11-38-19-18-39-10-51-12-15-14-55-0
0-34-3-48-31-46-29-26-25-24-20-40-41-21-50-54-27-43-28-0
Cost: 1294
0-34-1-3-48-31-29-26-25-24-20-40-41-21-50-54-27-44-28-45-0
0-2-13-35-6-4-7-32-8-36-9-11-38-19-18-39-10-51-12-15-14-55-0
Cost: 1294
0-2-13-35-6-4-7-32-8-36-9-11-38-19-18-39-10-51-12-15-14-55-0
0-34-1-3-48-31-46-29-26-25-24-20-40-41-21-50-54-27-44-28-0
Cost: 1294
0-34-1-3-48-31-46-29-26-25-24-20-40-41-21-54-27-49-44-28-0
0-2-13-35-6-4-7-32-8-36-9-11-19-18-39-38-10-51-12-15-14-55-0
Cost: 1294
0-2-13-35-6-4-7-32-8-36-9-11-38-19-18-39-10-51-12-15-14-55-0
0-34-1-3-48-31-46-29-26-25-24-20-40-41-21-50-54-27-44-28-0
Cost: 1294
0-34-3-48-31-46-29-26-25-20-40-41-21-50-23-54-27-43-28-0
0-1-2-13-35-6-4-7-32-8-36-9-11-38-19-18-39-10-51-12-15-14-55-0
Cost: 1294
0-1-2-13-35-4-6-7-32-8-36-9-11-38-19-18-39-10-51-12-15-14-55-0
0-34-3-48-31-46-29-26-25-24-20-40-41-21-50-54-27-43-28-0
Cost: 1294
0-1-2-13-35-4-6-7-32-8-36-9-11-38-19-18-39-10-51-12-15-14-55-0
0-34-3-48-31-46-29-26-25-24-20-40-41-21-50-54-27-43-28-0
Cost: 1294
0-34-1-3-48-31-46-29-26-25-24-20-40-41-21-54-27-49-44-28-0
0-2-13-35-4-6-7-32-8-36-9-11-38-19-18-39-10-51-12-15-14-55-0
Cost: 1295
0-34-3-48-31-46-29-26-25-20-40-41-21-50-23-54-27-43-28-0
0-1-2-13-35-6-4-7-32-8-36-9-11-38-19-18-39-10-14-12-15-52-55-0
Cost: 1294
0-34-1-3-48-31-29-26-25-24-20-40-41-21-54-27-49-43-28-45-0
0-2-13-35-4-6-7-32-8-36-9-11-19-18-39-38-10-51-12-15-14-55-0
Cost: 1294
0-1-2-13-35-4-6-7-32-8-36-9-11-38-19-18-39-10-51-12-15-14-55-0
0-34-3-48-31-46-29-26-25-24-20-40-41-21-54-27-49-43-28-0
Cost: 1294
0-1-2-13-35-6-4-7-32-8-36-9-11-38-19-18-39-10-51-12-15-14-55-0
0-34-3-48-31-29-26-25-24-20-40-41-21-54-27-49-43-28-45-0
